GLPSOL--GLPK LP/MIP Solver 5.0
Parameter(s) specified in the command line:
 --lp ../modeles/3_114.lp --log 3_114.log
Reading problem data from '../modeles/3_114.lp'...
355 rows, 690 columns, 2403 non-zeros
342 integer variables, all of which are binary
1054 lines were read
GLPK Integer Optimizer 5.0
355 rows, 690 columns, 2403 non-zeros
342 integer variables, all of which are binary
Preprocessing...
342 constraint coefficient(s) were reduced
355 rows, 687 columns, 2400 non-zeros
342 integer variables, all of which are binary
Scaling...
 A: min|aij| =  1.231e-03  max|aij| =  4.000e+00  ratio =  3.249e+03
GM: min|aij| =  1.325e-01  max|aij| =  7.550e+00  ratio =  5.700e+01
EQ: min|aij| =  1.754e-02  max|aij| =  1.000e+00  ratio =  5.700e+01
2N: min|aij| =  1.562e-02  max|aij| =  1.757e+00  ratio =  1.125e+02
Constructing initial basis...
Size of triangular part is 355
Solving LP relaxation...
GLPK Simplex Optimizer 5.0
355 rows, 687 columns, 2400 non-zeros
      0: obj =   6.000000000e+00 inf =   1.450e+01 (7)
     44: obj =   3.509163715e-01 inf =   0.000e+00 (0)
*   138: obj =  -1.731259968e+00 inf =   5.457e-16 (0)
OPTIMAL LP SOLUTION FOUND
Integer optimization begins...
Long-step dual simplex will be used
+   138: mip =     not found yet >=              -inf        (1; 0)
+   201: >>>>>  -1.731259968e+00 >=  -1.731259968e+00   0.0% (63; 0)
+   201: mip =  -1.731259968e+00 >=     tree is empty   0.0% (0; 125)
INTEGER OPTIMAL SOLUTION FOUND
Time used:   0.0 secs
Memory used: 1.0 Mb (1083431 bytes)
